300
400
280
280
280
278
278
278
275
274
274
272
272
272
271
268
267
267
267
267
267
267
266
265
264
263
263
262
261
258
257
256
254
254
253
253
252
252
251
251
250
249
247
246
244
242
240
240
239
238
237
237
236
236
236
235
235
234
234
233
233
232
231
231
229
228
228
226
224
224
223
222
221
219
218
218
217
217
216
216
216
216
215
214
213
213
212
212
211
211
211
210
210
210
209
209
207
206
206
205
205
205
205
204
203
203
203
202
202
202
202
202
201
200
200
199
199
199
198
197
197
197
196
196
196
195
193
193
191
190
190
189
189
188
186
185
184
183
183
179
179
178
172
172
169
169
169
168
168
167
167
165
163
162
161
160
159
158
157
157
156
156
156
156
155
154
154
154
154
152
151
151
151
150
150
150
150
149
148
148
148
148
146
146
144
144
144
143
143
142
141
141
140
138
137
137
136
136
135
134
133
133
132
129
128
127
125
125
124
124
123
122
120
120
120
119
119
119
118
118
116
114
114
113
113
112
111
110
110
108
106
106
105
105
103
100
99
98
98
97
95
93
93
92
92
91
91
90
90
89
87
85
84
84
84
82
81
80
79
79
78
77
77
75
74
74
73
72
70
68
68
68
67
67
66
66
65
64
64
63
62
62
60
59
57
56
55
53
53
51
51
51
48
48
46
46
45
44
43
42
41
40
